% ----DATA VARIABLES----

t=5;%number of attributes
k=4;%max length of the support set
n=5;%number of positive instances
m=5;%number of negative instances
c=2;%number of atMostOne Constraints

% ----OMEGAS----

omegap= [| 0, 1, 1, 1, 1|
 0, 0, 0, 1, 0|
 1, 1, 0, 1, 1|
 1, 1, 1, 1, 0|
 0, 0, 0, 1, 0|];

omegan= [| 1, 0, 1, 0, 1|
 1, 1, 0, 0, 0|
 1, 0, 1, 1, 1|
 0, 1, 0, 1, 0|
 0, 1, 1, 0, 0|];

% ----CONSTRAINS----

atMostOne=[{2}, {1}];